p cnf 961 2466
51 -694 -695 0
-51 694 0
-51 695 0
52 -51 -3 0
-52 51 0
-52 3 0
53 -5 -696 0
-53 5 0
-53 696 0
54 -53 -697 0
-54 53 0
-54 697 0
55 -698 -699 0
-55 698 0
-55 699 0
56 -8 -700 0
-56 8 0
-56 700 0
57 -56 -701 0
-57 56 0
-57 701 0
58 -702 -55 0
-58 702 0
-58 55 0
59 -703 -10 0
-59 703 0
-59 10 0
60 -59 -9 0
-60 59 0
-60 9 0
61 -704 -58 0
-61 704 0
-61 58 0
62 -705 -706 0
-62 705 0
-62 706 0
63 -62 -13 0
-63 62 0
-63 13 0
64 -707 -61 0
-64 707 0
-64 61 0
65 -15 -708 0
-65 15 0
-65 708 0
66 -65 -16 0
-66 65 0
-66 16 0
67 -709 -64 0
-67 709 0
-67 64 0
68 -18 -17 0
-68 18 0
-68 17 0
69 -68 -19 0
-69 68 0
-69 19 0
70 -710 -67 0
-70 710 0
-70 67 0
71 -20 -711 0
-71 20 0
-71 711 0
72 -71 -11 0
-72 71 0
-72 11 0
73 -712 -70 0
-73 712 0
-73 70 0
74 -713 -20 0
-74 713 0
-74 20 0
75 -74 -22 0
-75 74 0
-75 22 0
76 -714 -73 0
-76 714 0
-76 73 0
77 -24 -715 0
-77 24 0
-77 715 0
78 -77 -11 0
-78 77 0
-78 11 0
79 -716 -76 0
-79 716 0
-79 76 0
80 -717 -1 0
-80 717 0
-80 1 0
81 -80 -718 0
-81 80 0
-81 718 0
82 -719 -79 0
-82 719 0
-82 79 0
83 -26 -14 0
-83 26 0
-83 14 0
84 -83 -27 0
-84 83 0
-84 27 0
85 -720 -82 0
-85 720 0
-85 82 0
86 -721 -722 0
-86 721 0
-86 722 0
87 -86 -30 0
-87 86 0
-87 30 0
88 -723 -85 0
-88 723 0
-88 85 0
89 -32 -31 0
-89 32 0
-89 31 0
90 -89 -701 0
-90 89 0
-90 701 0
91 -724 -88 0
-91 724 0
-91 88 0
92 -13 -711 0
-92 13 0
-92 711 0
93 -92 -23 0
-93 92 0
-93 23 0
94 -725 -91 0
-94 725 0
-94 91 0
95 -30 -1 0
-95 30 0
-95 1 0
96 -95 -713 0
-96 95 0
-96 713 0
97 -726 -94 0
-97 726 0
-97 94 0
98 -727 -2 0
-98 727 0
-98 2 0
99 -98 -22 0
-99 98 0
-99 22 0
100 -728 -97 0
-100 728 0
-100 97 0
101 -35 -729 0
-101 35 0
-101 729 0
102 -101 -30 0
-102 101 0
-102 30 0
103 -730 -100 0
-103 730 0
-103 100 0
104 -36 -731 0
-104 36 0
-104 731 0
105 -104 -715 0
-105 104 0
-105 715 0
106 -732 -103 0
-106 732 0
-106 103 0
107 -706 -7 0
-107 706 0
-107 7 0
108 -107 -733 0
-108 107 0
-108 733 0
109 -734 -106 0
-109 734 0
-109 106 0
110 -17 -3 0
-110 17 0
-110 3 0
111 -110 -16 0
-111 110 0
-111 16 0
112 -735 -109 0
-112 735 0
-112 109 0
113 -25 -22 0
-113 25 0
-113 22 0
114 -113 -9 0
-114 113 0
-114 9 0
115 -736 -112 0
-115 736 0
-115 112 0
116 -737 -711 0
-116 737 0
-116 711 0
117 -116 -39 0
-117 116 0
-117 39 0
118 -738 -115 0
-118 738 0
-118 115 0
119 -25 -19 0
-119 25 0
-119 19 0
120 -119 -739 0
-120 119 0
-120 739 0
121 -740 -118 0
-121 740 0
-121 118 0
122 -40 -700 0
-122 40 0
-122 700 0
123 -122 -741 0
-123 122 0
-123 741 0
124 -742 -121 0
-124 742 0
-124 121 0
125 -26 -13 0
-125 26 0
-125 13 0
126 -125 -36 0
-126 125 0
-126 36 0
127 -743 -124 0
-127 743 0
-127 124 0
128 -744 -718 0
-128 744 0
-128 718 0
129 -128 -21 0
-129 128 0
-129 21 0
130 -745 -127 0
-130 745 0
-130 127 0
131 -746 -1 0
-131 746 0
-131 1 0
132 -131 -41 0
-132 131 0
-132 41 0
133 -747 -130 0
-133 747 0
-133 130 0
134 -17 -694 0
-134 17 0
-134 694 0
135 -134 -42 0
-135 134 0
-135 42 0
136 -748 -133 0
-136 748 0
-136 133 0
137 -10 -5 0
-137 10 0
-137 5 0
138 -137 -701 0
-138 137 0
-138 701 0
139 -749 -136 0
-139 749 0
-139 136 0
140 -43 -32 0
-140 43 0
-140 32 0
141 -140 -9 0
-141 140 0
-141 9 0
142 -750 -139 0
-142 750 0
-142 139 0
143 -751 -752 0
-143 751 0
-143 752 0
144 -143 -727 0
-144 143 0
-144 727 0
145 -753 -142 0
-145 753 0
-145 142 0
146 -32 -26 0
-146 32 0
-146 26 0
147 -146 -733 0
-147 146 0
-147 733 0
148 -754 -145 0
-148 754 0
-148 145 0
149 -20 -705 0
-149 20 0
-149 705 0
150 -149 -755 0
-150 149 0
-150 755 0
151 -756 -148 0
-151 756 0
-151 148 0
152 -757 -25 0
-152 757 0
-152 25 0
153 -152 -15 0
-153 152 0
-153 15 0
154 -758 -151 0
-154 758 0
-154 151 0
155 -759 -3 0
-155 759 0
-155 3 0
156 -155 -43 0
-156 155 0
-156 43 0
157 -760 -154 0
-157 760 0
-157 154 0
158 -43 -13 0
-158 43 0
-158 13 0
159 -158 -6 0
-159 158 0
-159 6 0
160 -761 -157 0
-160 761 0
-160 157 0
161 -708 -6 0
-161 708 0
-161 6 0
162 -161 -762 0
-162 161 0
-162 762 0
163 -763 -160 0
-163 763 0
-163 160 0
164 -35 -33 0
-164 35 0
-164 33 0
165 -164 -733 0
-165 164 0
-165 733 0
166 -764 -163 0
-166 764 0
-166 163 0
167 -733 -696 0
-167 733 0
-167 696 0
168 -167 -21 0
-168 167 0
-168 21 0
169 -765 -166 0
-169 765 0
-169 166 0
170 -722 -23 0
-170 722 0
-170 23 0
171 -170 -38 0
-171 170 0
-171 38 0
172 -766 -169 0
-172 766 0
-172 169 0
173 -45 -23 0
-173 45 0
-173 23 0
174 -173 -11 0
-174 173 0
-174 11 0
175 -767 -172 0
-175 767 0
-175 172 0
176 -768 -744 0
-176 768 0
-176 744 0
177 -176 -6 0
-177 176 0
-177 6 0
178 -769 -175 0
-178 769 0
-178 175 0
179 -23 -17 0
-179 23 0
-179 17 0
180 -179 -718 0
-180 179 0
-180 718 0
181 -770 -178 0
-181 770 0
-181 178 0
182 -44 -13 0
-182 44 0
-182 13 0
183 -182 -771 0
-183 182 0
-183 771 0
184 -772 -181 0
-184 772 0
-184 181 0
185 -768 -706 0
-185 768 0
-185 706 0
186 -185 -47 0
-186 185 0
-186 47 0
187 -773 -184 0
-187 773 0
-187 184 0
188 -737 -31 0
-188 737 0
-188 31 0
189 -188 -21 0
-189 188 0
-189 21 0
190 -774 -187 0
-190 774 0
-190 187 0
191 -751 -41 0
-191 751 0
-191 41 0
192 -191 -20 0
-192 191 0
-192 20 0
193 -775 -190 0
-193 775 0
-193 190 0
194 -759 -8 0
-194 759 0
-194 8 0
195 -194 -762 0
-195 194 0
-195 762 0
196 -776 -193 0
-196 776 0
-196 193 0
197 -44 -718 0
-197 44 0
-197 718 0
198 -197 -16 0
-198 197 0
-198 16 0
199 -777 -196 0
-199 777 0
-199 196 0
200 -32 -30 0
-200 32 0
-200 30 0
201 -200 -21 0
-201 200 0
-201 21 0
202 -778 -199 0
-202 778 0
-202 199 0
203 -746 -13 0
-203 746 0
-203 13 0
204 -203 -24 0
-204 203 0
-204 24 0
205 -779 -202 0
-205 779 0
-205 202 0
206 -40 -727 0
-206 40 0
-206 727 0
207 -206 -23 0
-207 206 0
-207 23 0
208 -780 -205 0
-208 780 0
-208 205 0
209 -781 -2 0
-209 781 0
-209 2 0
210 -209 -20 0
-210 209 0
-210 20 0
211 -782 -208 0
-211 782 0
-211 208 0
212 -727 -752 0
-212 727 0
-212 752 0
213 -212 -37 0
-213 212 0
-213 37 0
214 -783 -211 0
-214 783 0
-214 211 0
215 -17 -12 0
-215 17 0
-215 12 0
216 -215 -746 0
-216 215 0
-216 746 0
217 -784 -214 0
-217 784 0
-217 214 0
218 -746 -2 0
-218 746 0
-218 2 0
219 -218 -24 0
-219 218 0
-219 24 0
220 -785 -217 0
-220 785 0
-220 217 0
221 -10 -695 0
-221 10 0
-221 695 0
222 -221 -786 0
-222 221 0
-222 786 0
223 -787 -220 0
-223 787 0
-223 220 0
224 -14 -695 0
-224 14 0
-224 695 0
225 -224 -788 0
-225 224 0
-225 788 0
226 -789 -223 0
-226 789 0
-226 223 0
227 -36 -8 0
-227 36 0
-227 8 0
228 -227 -739 0
-228 227 0
-228 739 0
229 -790 -226 0
-229 790 0
-229 226 0
230 -718 -19 0
-230 718 0
-230 19 0
231 -230 -9 0
-231 230 0
-231 9 0
232 -791 -229 0
-232 791 0
-232 229 0
233 -792 -37 0
-233 792 0
-233 37 0
234 -233 -16 0
-234 233 0
-234 16 0
235 -793 -232 0
-235 793 0
-235 232 0
236 -30 -706 0
-236 30 0
-236 706 0
237 -236 -755 0
-237 236 0
-237 755 0
238 -794 -235 0
-238 794 0
-238 235 0
239 -30 -18 0
-239 30 0
-239 18 0
240 -239 -27 0
-240 239 0
-240 27 0
241 -795 -238 0
-241 795 0
-241 238 0
242 -40 -2 0
-242 40 0
-242 2 0
243 -242 -23 0
-243 242 0
-243 23 0
244 -796 -241 0
-244 796 0
-244 241 0
245 -797 -26 0
-245 797 0
-245 26 0
246 -245 -703 0
-246 245 0
-246 703 0
247 -798 -244 0
-247 798 0
-247 244 0
248 -799 -722 0
-248 799 0
-248 722 0
249 -248 -739 0
-249 248 0
-249 739 0
250 -800 -247 0
-250 800 0
-250 247 0
251 -2 -695 0
-251 2 0
-251 695 0
252 -251 -739 0
-252 251 0
-252 739 0
253 -801 -250 0
-253 801 0
-253 250 0
254 -31 -722 0
-254 31 0
-254 722 0
255 -254 -22 0
-255 254 0
-255 22 0
256 -802 -253 0
-256 802 0
-256 253 0
257 -26 -1 0
-257 26 0
-257 1 0
258 -257 -22 0
-258 257 0
-258 22 0
259 -803 -256 0
-259 803 0
-259 256 0
260 -40 -36 0
-260 40 0
-260 36 0
261 -260 -18 0
-261 260 0
-261 18 0
262 -804 -259 0
-262 804 0
-262 259 0
263 -805 -3 0
-263 805 0
-263 3 0
264 -263 -28 0
-264 263 0
-264 28 0
265 -806 -262 0
-265 806 0
-265 262 0
266 -746 -11 0
-266 746 0
-266 11 0
267 -266 -48 0
-267 266 0
-267 48 0
268 -807 -265 0
-268 807 0
-268 265 0
269 -808 -809 0
-269 808 0
-269 809 0
270 -269 -48 0
-270 269 0
-270 48 0
271 -810 -268 0
-271 810 0
-271 268 0
272 -811 -713 0
-272 811 0
-272 713 0
273 -272 -9 0
-273 272 0
-273 9 0
274 -812 -271 0
-274 812 0
-274 271 0
275 -813 -731 0
-275 813 0
-275 731 0
276 -275 -9 0
-276 275 0
-276 9 0
277 -814 -274 0
-277 814 0
-277 274 0
278 -759 -31 0
-278 759 0
-278 31 0
279 -278 -49 0
-279 278 0
-279 49 0
280 -815 -277 0
-280 815 0
-280 277 0
281 -50 -700 0
-281 50 0
-281 700 0
282 -281 -771 0
-282 281 0
-282 771 0
283 -816 -280 0
-283 816 0
-283 280 0
284 -19 -3 0
-284 19 0
-284 3 0
285 -284 -49 0
-285 284 0
-285 49 0
286 -817 -283 0
-286 817 0
-286 283 0
287 -799 -28 0
-287 799 0
-287 28 0
288 -287 -713 0
-288 287 0
-288 713 0
289 -818 -286 0
-289 818 0
-289 286 0
290 -744 -705 0
-290 744 0
-290 705 0
291 -290 -813 0
-291 290 0
-291 813 0
292 -819 -289 0
-292 819 0
-292 289 0
293 -42 -797 0
-293 42 0
-293 797 0
294 -293 -9 0
-294 293 0
-294 9 0
295 -820 -292 0
-295 820 0
-295 292 0
296 -20 -7 0
-296 20 0
-296 7 0
297 -296 -16 0
-297 296 0
-297 16 0
298 -821 -295 0
-298 821 0
-298 295 0
299 -757 -721 0
-299 757 0
-299 721 0
300 -299 -6 0
-300 299 0
-300 6 0
301 -822 -298 0
-301 822 0
-301 298 0
302 -797 -8 0
-302 797 0
-302 8 0
303 -302 -739 0
-303 302 0
-303 739 0
304 -823 -301 0
-304 823 0
-304 301 0
305 -705 -696 0
-305 705 0
-305 696 0
306 -305 -44 0
-306 305 0
-306 44 0
307 -824 -304 0
-307 824 0
-307 304 0
308 -26 -10 0
-308 26 0
-308 10 0
309 -308 -20 0
-309 308 0
-309 20 0
310 -825 -307 0
-310 825 0
-310 307 0
311 -30 -731 0
-311 30 0
-311 731 0
312 -311 -768 0
-312 311 0
-312 768 0
313 -826 -310 0
-313 826 0
-313 310 0
314 -751 -741 0
-314 751 0
-314 741 0
315 -314 -792 0
-315 314 0
-315 792 0
316 -827 -313 0
-316 827 0
-316 313 0
317 -808 -828 0
-317 808 0
-317 828 0
318 -317 -47 0
-318 317 0
-318 47 0
319 -829 -316 0
-319 829 0
-319 316 0
320 -29 -731 0
-320 29 0
-320 731 0
321 -320 -762 0
-321 320 0
-321 762 0
322 -830 -319 0
-322 830 0
-322 319 0
323 -40 -721 0
-323 40 0
-323 721 0
324 -323 -799 0
-324 323 0
-324 799 0
325 -831 -322 0
-325 831 0
-325 322 0
326 -29 -705 0
-326 29 0
-326 705 0
327 -326 -771 0
-327 326 0
-327 771 0
328 -832 -325 0
-328 832 0
-328 325 0
329 -5 -3 0
-329 5 0
-329 3 0
330 -329 -38 0
-330 329 0
-330 38 0
331 -833 -328 0
-331 833 0
-331 328 0
332 -53 -24 0
-332 53 0
-332 24 0
333 -834 -331 0
-333 834 0
-333 331 0
334 -727 -741 0
-334 727 0
-334 741 0
335 -334 -41 0
-335 334 0
-335 41 0
336 -835 -333 0
-336 835 0
-336 333 0
337 -18 -708 0
-337 18 0
-337 708 0
338 -337 -799 0
-338 337 0
-338 799 0
339 -836 -336 0
-339 836 0
-339 336 0
340 -744 -31 0
-340 744 0
-340 31 0
341 -340 -17 0
-341 340 0
-341 17 0
342 -837 -339 0
-342 837 0
-342 339 0
343 -272 -16 0
-343 272 0
-343 16 0
344 -838 -342 0
-344 838 0
-344 342 0
345 -44 -31 0
-345 44 0
-345 31 0
346 -345 -18 0
-346 345 0
-346 18 0
347 -839 -344 0
-347 839 0
-347 344 0
348 -757 -708 0
-348 757 0
-348 708 0
349 -348 -788 0
-349 348 0
-349 788 0
350 -840 -347 0
-350 840 0
-350 347 0
351 -13 -4 0
-351 13 0
-351 4 0
352 -351 -737 0
-352 351 0
-352 737 0
353 -841 -350 0
-353 841 0
-353 350 0
354 -733 -10 0
-354 733 0
-354 10 0
355 -354 -27 0
-355 354 0
-355 27 0
356 -842 -353 0
-356 842 0
-356 353 0
357 -705 -2 0
-357 705 0
-357 2 0
358 -357 -788 0
-358 357 0
-358 788 0
359 -843 -356 0
-359 843 0
-359 356 0
360 -729 -1 0
-360 729 0
-360 1 0
361 -360 -24 0
-361 360 0
-361 24 0
362 -844 -359 0
-362 844 0
-362 359 0
363 -729 -695 0
-363 729 0
-363 695 0
364 -363 -845 0
-364 363 0
-364 845 0
365 -846 -362 0
-365 846 0
-365 362 0
366 -34 -788 0
-366 34 0
-366 788 0
367 -366 -771 0
-367 366 0
-367 771 0
368 -847 -365 0
-368 847 0
-368 365 0
369 -811 -20 0
-369 811 0
-369 20 0
370 -369 -9 0
-370 369 0
-370 9 0
371 -848 -368 0
-371 848 0
-371 368 0
372 -849 -12 0
-372 849 0
-372 12 0
373 -372 -38 0
-373 372 0
-373 38 0
374 -850 -371 0
-374 850 0
-374 371 0
375 -746 -4 0
-375 746 0
-375 4 0
376 -375 -733 0
-376 375 0
-376 733 0
377 -851 -374 0
-377 851 0
-377 374 0
378 -257 -20 0
-378 257 0
-378 20 0
379 -852 -377 0
-379 852 0
-379 377 0
380 -25 -1 0
-380 25 0
-380 1 0
381 -380 -755 0
-381 380 0
-381 755 0
382 -853 -379 0
-382 853 0
-382 379 0
383 -768 -715 0
-383 768 0
-383 715 0
384 -383 -849 0
-384 383 0
-384 849 0
385 -854 -382 0
-385 854 0
-385 382 0
386 -31 -26 0
-386 31 0
-386 26 0
387 -386 -797 0
-387 386 0
-387 797 0
388 -855 -385 0
-388 855 0
-388 385 0
389 -811 -26 0
-389 811 0
-389 26 0
390 -389 -23 0
-390 389 0
-390 23 0
391 -856 -388 0
-391 856 0
-391 388 0
392 -23 -809 0
-392 23 0
-392 809 0
393 -392 -849 0
-393 392 0
-393 849 0
394 -857 -391 0
-394 857 0
-394 391 0
395 -718 -18 0
-395 718 0
-395 18 0
396 -395 -6 0
-396 395 0
-396 6 0
397 -858 -394 0
-397 858 0
-397 394 0
398 -751 -37 0
-398 751 0
-398 37 0
399 -398 -6 0
-399 398 0
-399 6 0
400 -859 -397 0
-400 859 0
-400 397 0
401 -759 -29 0
-401 759 0
-401 29 0
402 -401 -703 0
-402 401 0
-402 703 0
403 -860 -400 0
-403 860 0
-403 400 0
404 -813 -788 0
-404 813 0
-404 788 0
405 -404 -703 0
-405 404 0
-405 703 0
406 -861 -403 0
-406 861 0
-406 403 0
407 -50 -46 0
-407 50 0
-407 46 0
408 -407 -813 0
-408 407 0
-408 813 0
409 -862 -406 0
-409 862 0
-409 406 0
410 -398 -42 0
-410 398 0
-410 42 0
411 -863 -409 0
-411 863 0
-411 409 0
412 -808 -771 0
-412 808 0
-412 771 0
413 -412 -21 0
-413 412 0
-413 21 0
414 -864 -411 0
-414 864 0
-414 411 0
415 -62 -828 0
-415 62 0
-415 828 0
416 -865 -414 0
-416 865 0
-416 414 0
417 -33 -797 0
-417 33 0
-417 797 0
418 -417 -845 0
-418 417 0
-418 845 0
419 -866 -416 0
-419 866 0
-419 416 0
420 -41 -752 0
-420 41 0
-420 752 0
421 -420 -713 0
-421 420 0
-421 713 0
422 -867 -419 0
-422 867 0
-422 419 0
423 -10 -706 0
-423 10 0
-423 706 0
424 -423 -47 0
-424 423 0
-424 47 0
425 -868 -422 0
-425 868 0
-425 422 0
426 -788 -708 0
-426 788 0
-426 708 0
427 -426 -24 0
-427 426 0
-427 24 0
428 -869 -425 0
-428 869 0
-428 425 0
429 -32 -695 0
-429 32 0
-429 695 0
430 -429 -15 0
-430 429 0
-430 15 0
431 -870 -428 0
-431 870 0
-431 428 0
432 -25 -711 0
-432 25 0
-432 711 0
433 -432 -694 0
-433 432 0
-433 694 0
434 -871 -431 0
-434 871 0
-434 431 0
435 -40 -4 0
-435 40 0
-435 4 0
436 -435 -30 0
-436 435 0
-436 30 0
437 -872 -434 0
-437 872 0
-437 434 0
438 -31 -813 0
-438 31 0
-438 813 0
439 -438 -755 0
-439 438 0
-439 755 0
440 -873 -437 0
-440 873 0
-440 437 0
441 -757 -33 0
-441 757 0
-441 33 0
442 -441 -737 0
-442 441 0
-442 737 0
443 -874 -440 0
-443 874 0
-443 440 0
444 -31 -711 0
-444 31 0
-444 711 0
445 -444 -727 0
-445 444 0
-445 727 0
446 -875 -443 0
-446 875 0
-446 443 0
447 -26 -700 0
-447 26 0
-447 700 0
448 -447 -24 0
-448 447 0
-448 24 0
449 -876 -446 0
-449 876 0
-449 446 0
450 -11 -711 0
-450 11 0
-450 711 0
451 -450 -877 0
-451 450 0
-451 877 0
452 -878 -449 0
-452 878 0
-452 449 0
453 -29 -706 0
-453 29 0
-453 706 0
454 -453 -813 0
-454 453 0
-454 813 0
455 -879 -452 0
-455 879 0
-455 452 0
456 -41 -733 0
-456 41 0
-456 733 0
457 -456 -877 0
-457 456 0
-457 877 0
458 -880 -455 0
-458 880 0
-458 455 0
459 -727 -4 0
-459 727 0
-459 4 0
460 -459 -881 0
-460 459 0
-460 881 0
461 -882 -458 0
-461 882 0
-461 458 0
462 -12 -10 0
-462 12 0
-462 10 0
463 -462 -20 0
-463 462 0
-463 20 0
464 -883 -461 0
-464 883 0
-464 461 0
465 -799 -29 0
-465 799 0
-465 29 0
466 -465 -43 0
-466 465 0
-466 43 0
467 -884 -464 0
-467 884 0
-467 464 0
468 -781 -13 0
-468 781 0
-468 13 0
469 -468 -792 0
-469 468 0
-469 792 0
470 -885 -467 0
-470 885 0
-470 467 0
471 -808 -8 0
-471 808 0
-471 8 0
472 -471 -24 0
-472 471 0
-472 24 0
473 -886 -470 0
-473 886 0
-473 470 0
474 -881 -797 0
-474 881 0
-474 797 0
475 -474 -792 0
-475 474 0
-475 792 0
476 -887 -473 0
-476 887 0
-476 473 0
477 -45 -711 0
-477 45 0
-477 711 0
478 -477 -24 0
-478 477 0
-478 24 0
479 -888 -476 0
-479 888 0
-479 476 0
480 -26 -805 0
-480 26 0
-480 805 0
481 -480 -718 0
-481 480 0
-481 718 0
482 -889 -479 0
-482 889 0
-482 479 0
483 -808 -717 0
-483 808 0
-483 717 0
484 -483 -755 0
-484 483 0
-484 755 0
485 -890 -482 0
-485 890 0
-485 482 0
486 -46 -752 0
-486 46 0
-486 752 0
487 -486 -22 0
-487 486 0
-487 22 0
488 -891 -485 0
-488 891 0
-488 485 0
489 -36 -7 0
-489 36 0
-489 7 0
490 -489 -21 0
-490 489 0
-490 21 0
491 -892 -488 0
-491 892 0
-491 488 0
492 -711 -8 0
-492 711 0
-492 8 0
493 -492 -27 0
-493 492 0
-493 27 0
494 -893 -491 0
-494 893 0
-494 491 0
495 -746 -20 0
-495 746 0
-495 20 0
496 -495 -701 0
-496 495 0
-496 701 0
497 -894 -494 0
-497 894 0
-497 494 0
498 -752 -705 0
-498 752 0
-498 705 0
499 -498 -881 0
-499 498 0
-499 881 0
500 -895 -497 0
-500 895 0
-500 497 0
501 -31 -717 0
-501 31 0
-501 717 0
502 -501 -881 0
-502 501 0
-502 881 0
503 -896 -500 0
-503 896 0
-503 500 0
504 -31 -715 0
-504 31 0
-504 715 0
505 -504 -881 0
-505 504 0
-505 881 0
506 -897 -503 0
-506 897 0
-506 503 0
507 -722 -13 0
-507 722 0
-507 13 0
508 -507 -41 0
-508 507 0
-508 41 0
509 -898 -506 0
-509 898 0
-509 506 0
510 -744 -813 0
-510 744 0
-510 813 0
511 -510 -27 0
-511 510 0
-511 27 0
512 -899 -509 0
-512 899 0
-512 509 0
513 -731 -696 0
-513 731 0
-513 696 0
514 -513 -20 0
-514 513 0
-514 20 0
515 -900 -512 0
-515 900 0
-515 512 0
516 -757 -30 0
-516 757 0
-516 30 0
517 -516 -877 0
-517 516 0
-517 877 0
518 -901 -515 0
-518 901 0
-518 515 0
519 -176 -42 0
-519 176 0
-519 42 0
520 -902 -518 0
-520 902 0
-520 518 0
521 -813 -3 0
-521 813 0
-521 3 0
522 -521 -739 0
-522 521 0
-522 739 0
523 -903 -520 0
-523 903 0
-523 520 0
524 -49 -797 0
-524 49 0
-524 797 0
525 -524 -733 0
-525 524 0
-525 733 0
526 -904 -523 0
-526 904 0
-526 523 0
527 -32 -7 0
-527 32 0
-527 7 0
528 -527 -701 0
-528 527 0
-528 701 0
529 -905 -526 0
-529 905 0
-529 526 0
530 -24 -12 0
-530 24 0
-530 12 0
531 -530 -697 0
-531 530 0
-531 697 0
532 -906 -529 0
-532 906 0
-532 529 0
533 -700 -4 0
-533 700 0
-533 4 0
534 -533 -711 0
-534 533 0
-534 711 0
535 -907 -532 0
-535 907 0
-535 532 0
536 -721 -2 0
-536 721 0
-536 2 0
537 -536 -19 0
-537 536 0
-537 19 0
538 -908 -535 0
-538 908 0
-538 535 0
539 -26 -696 0
-539 26 0
-539 696 0
540 -539 -828 0
-540 539 0
-540 828 0
541 -909 -538 0
-541 909 0
-541 538 0
542 -50 -37 0
-542 50 0
-542 37 0
543 -542 -21 0
-543 542 0
-543 21 0
544 -910 -541 0
-544 910 0
-544 541 0
545 -15 -7 0
-545 15 0
-545 7 0
546 -545 -47 0
-546 545 0
-546 47 0
547 -911 -544 0
-547 911 0
-547 544 0
548 -739 -717 0
-548 739 0
-548 717 0
549 -548 -845 0
-549 548 0
-549 845 0
550 -912 -547 0
-550 912 0
-550 547 0
551 -768 -23 0
-551 768 0
-551 23 0
552 -551 -739 0
-552 551 0
-552 739 0
553 -913 -550 0
-553 913 0
-553 550 0
554 -33 -3 0
-554 33 0
-554 3 0
555 -554 -739 0
-555 554 0
-555 739 0
556 -914 -553 0
-556 914 0
-556 553 0
557 -771 -768 0
-557 771 0
-557 768 0
558 -557 -37 0
-558 557 0
-558 37 0
559 -915 -556 0
-559 915 0
-559 556 0
560 -37 -717 0
-560 37 0
-560 717 0
561 -560 -877 0
-561 560 0
-561 877 0
562 -916 -559 0
-562 916 0
-562 559 0
563 -713 -12 0
-563 713 0
-563 12 0
564 -563 -792 0
-564 563 0
-564 792 0
565 -917 -562 0
-565 917 0
-565 562 0
566 -14 -11 0
-566 14 0
-566 11 0
567 -566 -792 0
-567 566 0
-567 792 0
568 -918 -565 0
-568 918 0
-568 565 0
569 -26 -17 0
-569 26 0
-569 17 0
570 -569 -9 0
-570 569 0
-570 9 0
571 -919 -568 0
-571 919 0
-571 568 0
572 -721 -19 0
-572 721 0
-572 19 0
573 -572 -715 0
-573 572 0
-573 715 0
574 -920 -571 0
-574 920 0
-574 571 0
575 -845 -19 0
-575 845 0
-575 19 0
576 -575 -16 0
-576 575 0
-576 16 0
577 -921 -574 0
-577 921 0
-577 574 0
578 -35 -706 0
-578 35 0
-578 706 0
579 -578 -16 0
-579 578 0
-579 16 0
580 -922 -577 0
-580 922 0
-580 577 0
581 -12 -706 0
-581 12 0
-581 706 0
582 -581 -18 0
-582 581 0
-582 18 0
583 -923 -580 0
-583 923 0
-583 580 0
584 -727 -18 0
-584 727 0
-584 18 0
585 -584 -41 0
-585 584 0
-585 41 0
586 -924 -583 0
-586 924 0
-586 583 0
587 -37 -711 0
-587 37 0
-587 711 0
588 -587 -849 0
-588 587 0
-588 849 0
589 -925 -586 0
-589 925 0
-589 586 0
590 -37 -722 0
-590 37 0
-590 722 0
591 -590 -755 0
-591 590 0
-591 755 0
592 -926 -589 0
-592 926 0
-592 589 0
593 -34 -717 0
-593 34 0
-593 717 0
594 -593 -722 0
-594 593 0
-594 722 0
595 -927 -592 0
-595 927 0
-595 592 0
596 -786 -14 0
-596 786 0
-596 14 0
597 -596 -20 0
-597 596 0
-597 20 0
598 -928 -595 0
-598 928 0
-598 595 0
599 -811 -3 0
-599 811 0
-599 3 0
600 -599 -768 0
-600 599 0
-600 768 0
601 -929 -598 0
-601 929 0
-601 598 0
602 -717 -14 0
-602 717 0
-602 14 0
603 -602 -46 0
-603 602 0
-603 46 0
604 -930 -601 0
-604 930 0
-604 601 0
605 -30 -717 0
-605 30 0
-605 717 0
606 -605 -9 0
-606 605 0
-606 9 0
607 -931 -604 0
-607 931 0
-607 604 0
608 -729 -4 0
-608 729 0
-608 4 0
609 -608 -8 0
-609 608 0
-609 8 0
610 -932 -607 0
-610 932 0
-610 607 0
611 -20 -6 0
-611 20 0
-611 6 0
612 -611 -39 0
-612 611 0
-612 39 0
613 -933 -610 0
-613 933 0
-613 610 0
614 -92 -19 0
-614 92 0
-614 19 0
615 -934 -613 0
-615 934 0
-615 613 0
616 -50 -49 0
-616 50 0
-616 49 0
617 -616 -42 0
-617 616 0
-617 42 0
618 -935 -615 0
-618 935 0
-618 615 0
619 -828 -7 0
-619 828 0
-619 7 0
620 -619 -9 0
-620 619 0
-620 9 0
621 -936 -618 0
-621 936 0
-621 618 0
622 -18 -10 0
-622 18 0
-622 10 0
623 -622 -797 0
-623 622 0
-623 797 0
624 -937 -621 0
-624 937 0
-624 621 0
625 -14 -1 0
-625 14 0
-625 1 0
626 -625 -22 0
-626 625 0
-626 22 0
627 -938 -624 0
-627 938 0
-627 624 0
628 -768 -741 0
-628 768 0
-628 741 0
629 -628 -24 0
-629 628 0
-629 24 0
630 -939 -627 0
-630 939 0
-630 627 0
631 -47 -42 0
-631 47 0
-631 42 0
632 -631 -9 0
-632 631 0
-632 9 0
633 -940 -630 0
-633 940 0
-633 630 0
634 -31 -721 0
-634 31 0
-634 721 0
635 -634 -9 0
-635 634 0
-635 9 0
636 -941 -633 0
-636 941 0
-636 633 0
637 -444 -746 0
-637 444 0
-637 746 0
638 -942 -636 0
-638 942 0
-638 636 0
639 -741 -12 0
-639 741 0
-639 12 0
640 -639 -809 0
-640 639 0
-640 809 0
641 -943 -638 0
-641 943 0
-641 638 0
642 -36 -25 0
-642 36 0
-642 25 0
643 -642 -22 0
-643 642 0
-643 22 0
644 -944 -641 0
-644 944 0
-644 641 0
645 -727 -722 0
-645 727 0
-645 722 0
646 -645 -828 0
-646 645 0
-646 828 0
647 -945 -644 0
-647 945 0
-647 644 0
648 -737 -26 0
-648 737 0
-648 26 0
649 -648 -697 0
-649 648 0
-649 697 0
650 -946 -647 0
-650 946 0
-650 647 0
651 -41 -797 0
-651 41 0
-651 797 0
652 -651 -9 0
-652 651 0
-652 9 0
653 -947 -650 0
-653 947 0
-653 650 0
654 -15 -705 0
-654 15 0
-654 705 0
655 -654 -11 0
-655 654 0
-655 11 0
656 -948 -653 0
-656 948 0
-656 653 0
657 -25 -8 0
-657 25 0
-657 8 0
658 -657 -771 0
-658 657 0
-658 771 0
659 -949 -656 0
-659 949 0
-659 656 0
660 -34 -26 0
-660 34 0
-660 26 0
661 -660 -881 0
-661 660 0
-661 881 0
662 -950 -659 0
-662 950 0
-662 659 0
663 -706 -695 0
-663 706 0
-663 695 0
664 -663 -2 0
-664 663 0
-664 2 0
665 -951 -662 0
-665 951 0
-665 662 0
666 -757 -781 0
-666 757 0
-666 781 0
667 -666 -48 0
-667 666 0
-667 48 0
668 -952 -665 0
-668 952 0
-668 665 0
669 -849 -718 0
-669 849 0
-669 718 0
670 -669 -11 0
-670 669 0
-670 11 0
671 -953 -668 0
-671 953 0
-671 668 0
672 -751 -17 0
-672 751 0
-672 17 0
673 -672 -2 0
-673 672 0
-673 2 0
674 -954 -671 0
-674 954 0
-674 671 0
675 -83 -5 0
-675 83 0
-675 5 0
676 -955 -674 0
-676 955 0
-676 674 0
677 -59 -755 0
-677 59 0
-677 755 0
678 -956 -676 0
-678 956 0
-678 676 0
679 -50 -781 0
-679 50 0
-679 781 0
680 -679 -752 0
-680 679 0
-680 752 0
681 -957 -678 0
-681 957 0
-681 678 0
682 -15 -8 0
-682 15 0
-682 8 0
683 -682 -727 0
-683 682 0
-683 727 0
684 -958 -681 0
-684 958 0
-684 681 0
685 -31 -20 0
-685 31 0
-685 20 0
686 -685 -22 0
-686 685 0
-686 22 0
687 -959 -684 0
-687 959 0
-687 684 0
688 -729 -7 0
-688 729 0
-688 7 0
689 -688 -16 0
-689 688 0
-689 16 0
690 -960 -687 0
-690 960 0
-690 687 0
691 -50 -733 0
-691 50 0
-691 733 0
692 -691 -755 0
-692 691 0
-692 755 0
693 -961 -690 0
-693 961 0
-693 690 0
-694 -2 0
694 2 0
-695 -1 0
695 1 0
-696 -4 0
696 4 0
-697 -6 0
697 6 0
-698 -54 0
698 54 0
-699 -52 0
699 52 0
-700 -7 0
700 7 0
-701 -9 0
701 9 0
-702 -57 0
702 57 0
-703 -11 0
703 11 0
-704 -60 0
704 60 0
-705 -12 0
705 12 0
-706 -8 0
706 8 0
-707 -63 0
707 63 0
-708 -14 0
708 14 0
-709 -66 0
709 66 0
-710 -69 0
710 69 0
-711 -10 0
711 10 0
-712 -72 0
712 72 0
-713 -21 0
713 21 0
-714 -75 0
714 75 0
-715 -23 0
715 23 0
-716 -78 0
716 78 0
-717 -25 0
717 25 0
-718 -20 0
718 20 0
-719 -81 0
719 81 0
-720 -84 0
720 84 0
-721 -29 0
721 29 0
-722 -28 0
722 28 0
-723 -87 0
723 87 0
-724 -90 0
724 90 0
-725 -93 0
725 93 0
-726 -96 0
726 96 0
-727 -33 0
727 33 0
-728 -99 0
728 99 0
-729 -34 0
729 34 0
-730 -102 0
730 102 0
-731 -18 0
731 18 0
-732 -105 0
732 105 0
-733 -37 0
733 37 0
-734 -108 0
734 108 0
-735 -111 0
735 111 0
-736 -114 0
736 114 0
-737 -38 0
737 38 0
-738 -117 0
738 117 0
-739 -27 0
739 27 0
-740 -120 0
740 120 0
-741 -17 0
741 17 0
-742 -123 0
742 123 0
-743 -126 0
743 126 0
-744 -40 0
744 40 0
-745 -129 0
745 129 0
-746 -35 0
746 35 0
-747 -132 0
747 132 0
-748 -135 0
748 135 0
-749 -138 0
749 138 0
-750 -141 0
750 141 0
-751 -44 0
751 44 0
-752 -13 0
752 13 0
-753 -144 0
753 144 0
-754 -147 0
754 147 0
-755 -39 0
755 39 0
-756 -150 0
756 150 0
-757 -45 0
757 45 0
-758 -153 0
758 153 0
-759 -36 0
759 36 0
-760 -156 0
760 156 0
-761 -159 0
761 159 0
-762 -16 0
762 16 0
-763 -162 0
763 162 0
-764 -165 0
764 165 0
-765 -168 0
765 168 0
-766 -171 0
766 171 0
-767 -174 0
767 174 0
-768 -41 0
768 41 0
-769 -177 0
769 177 0
-770 -180 0
770 180 0
-771 -46 0
771 46 0
-772 -183 0
772 183 0
-773 -186 0
773 186 0
-774 -189 0
774 189 0
-775 -192 0
775 192 0
-776 -195 0
776 195 0
-777 -198 0
777 198 0
-778 -201 0
778 201 0
-779 -204 0
779 204 0
-780 -207 0
780 207 0
-781 -31 0
781 31 0
-782 -210 0
782 210 0
-783 -213 0
783 213 0
-784 -216 0
784 216 0
-785 -219 0
785 219 0
-786 -26 0
786 26 0
-787 -222 0
787 222 0
-788 -15 0
788 15 0
-789 -225 0
789 225 0
-790 -228 0
790 228 0
-791 -231 0
791 231 0
-792 -48 0
792 48 0
-793 -234 0
793 234 0
-794 -237 0
794 237 0
-795 -240 0
795 240 0
-796 -243 0
796 243 0
-797 -30 0
797 30 0
-798 -246 0
798 246 0
-799 -49 0
799 49 0
-800 -249 0
800 249 0
-801 -252 0
801 252 0
-802 -255 0
802 255 0
-803 -258 0
803 258 0
-804 -261 0
804 261 0
-805 -5 0
805 5 0
-806 -264 0
806 264 0
-807 -267 0
807 267 0
-808 -50 0
808 50 0
-809 -3 0
809 3 0
-810 -270 0
810 270 0
-811 -32 0
811 32 0
-812 -273 0
812 273 0
-813 -24 0
813 24 0
-814 -276 0
814 276 0
-815 -279 0
815 279 0
-816 -282 0
816 282 0
-817 -285 0
817 285 0
-818 -288 0
818 288 0
-819 -291 0
819 291 0
-820 -294 0
820 294 0
-821 -297 0
821 297 0
-822 -300 0
822 300 0
-823 -303 0
823 303 0
-824 -306 0
824 306 0
-825 -309 0
825 309 0
-826 -312 0
826 312 0
-827 -315 0
827 315 0
-828 -19 0
828 19 0
-829 -318 0
829 318 0
-830 -321 0
830 321 0
-831 -324 0
831 324 0
-832 -327 0
832 327 0
-833 -330 0
833 330 0
-834 -332 0
834 332 0
-835 -335 0
835 335 0
-836 -338 0
836 338 0
-837 -341 0
837 341 0
-838 -343 0
838 343 0
-839 -346 0
839 346 0
-840 -349 0
840 349 0
-841 -352 0
841 352 0
-842 -355 0
842 355 0
-843 -358 0
843 358 0
-844 -361 0
844 361 0
-845 -47 0
845 47 0
-846 -364 0
846 364 0
-847 -367 0
847 367 0
-848 -370 0
848 370 0
-849 -43 0
849 43 0
-850 -373 0
850 373 0
-851 -376 0
851 376 0
-852 -378 0
852 378 0
-853 -381 0
853 381 0
-854 -384 0
854 384 0
-855 -387 0
855 387 0
-856 -390 0
856 390 0
-857 -393 0
857 393 0
-858 -396 0
858 396 0
-859 -399 0
859 399 0
-860 -402 0
860 402 0
-861 -405 0
861 405 0
-862 -408 0
862 408 0
-863 -410 0
863 410 0
-864 -413 0
864 413 0
-865 -415 0
865 415 0
-866 -418 0
866 418 0
-867 -421 0
867 421 0
-868 -424 0
868 424 0
-869 -427 0
869 427 0
-870 -430 0
870 430 0
-871 -433 0
871 433 0
-872 -436 0
872 436 0
-873 -439 0
873 439 0
-874 -442 0
874 442 0
-875 -445 0
875 445 0
-876 -448 0
876 448 0
-877 -22 0
877 22 0
-878 -451 0
878 451 0
-879 -454 0
879 454 0
-880 -457 0
880 457 0
-881 -42 0
881 42 0
-882 -460 0
882 460 0
-883 -463 0
883 463 0
-884 -466 0
884 466 0
-885 -469 0
885 469 0
-886 -472 0
886 472 0
-887 -475 0
887 475 0
-888 -478 0
888 478 0
-889 -481 0
889 481 0
-890 -484 0
890 484 0
-891 -487 0
891 487 0
-892 -490 0
892 490 0
-893 -493 0
893 493 0
-894 -496 0
894 496 0
-895 -499 0
895 499 0
-896 -502 0
896 502 0
-897 -505 0
897 505 0
-898 -508 0
898 508 0
-899 -511 0
899 511 0
-900 -514 0
900 514 0
-901 -517 0
901 517 0
-902 -519 0
902 519 0
-903 -522 0
903 522 0
-904 -525 0
904 525 0
-905 -528 0
905 528 0
-906 -531 0
906 531 0
-907 -534 0
907 534 0
-908 -537 0
908 537 0
-909 -540 0
909 540 0
-910 -543 0
910 543 0
-911 -546 0
911 546 0
-912 -549 0
912 549 0
-913 -552 0
913 552 0
-914 -555 0
914 555 0
-915 -558 0
915 558 0
-916 -561 0
916 561 0
-917 -564 0
917 564 0
-918 -567 0
918 567 0
-919 -570 0
919 570 0
-920 -573 0
920 573 0
-921 -576 0
921 576 0
-922 -579 0
922 579 0
-923 -582 0
923 582 0
-924 -585 0
924 585 0
-925 -588 0
925 588 0
-926 -591 0
926 591 0
-927 -594 0
927 594 0
-928 -597 0
928 597 0
-929 -600 0
929 600 0
-930 -603 0
930 603 0
-931 -606 0
931 606 0
-932 -609 0
932 609 0
-933 -612 0
933 612 0
-934 -614 0
934 614 0
-935 -617 0
935 617 0
-936 -620 0
936 620 0
-937 -623 0
937 623 0
-938 -626 0
938 626 0
-939 -629 0
939 629 0
-940 -632 0
940 632 0
-941 -635 0
941 635 0
-942 -637 0
942 637 0
-943 -640 0
943 640 0
-944 -643 0
944 643 0
-945 -646 0
945 646 0
-946 -649 0
946 649 0
-947 -652 0
947 652 0
-948 -655 0
948 655 0
-949 -658 0
949 658 0
-950 -661 0
950 661 0
-951 -664 0
951 664 0
-952 -667 0
952 667 0
-953 -670 0
953 670 0
-954 -673 0
954 673 0
-955 -675 0
955 675 0
-956 -677 0
956 677 0
-957 -680 0
957 680 0
-958 -683 0
958 683 0
-959 -686 0
959 686 0
-960 -689 0
960 689 0
-961 -692 0
961 692 0
693 0
